certificates/rado_a11_c39_N33.drat
1 -33 0
-33 0
6 0
-1 0
29 0
5 0
-2 0
-21 0
-32 0
-22 0
-13 0
18 0
19 0
30 0
16 0
15 0
4 0
-23 0
-14 0
-24 0
-3 0
-11 0
-20 0
-31 0
-10 0
-9 0
-25 0
17 0
0
